
Gurobi 7.0.2 (win64) logging started 06/27/20 08:18:46

Read LP format model from file C:\George\Professor\Pesquisa\Orientacoes em Pos-graduacao\2019 MSC PPGCC Guilherme Figueroa\Fanjuls Solver\Results\I_100_15_S_1-49_4_MTZ_KB.lp
Reading time = 0.94 seconds
: 13230 rows, 153101 columns, 629015 nonzeros
Optimize a model with 13230 rows, 153101 columns and 629015 nonzeros
Variable types: 1601 continuous, 151500 integer (151500 binary)
Coefficient statistics:
  Matrix range     [1e+00, 1e+02]
  Objective range  [1e+00, 1e+00]
  Bounds range     [1e+00, 1e+00]
  RHS range        [1e+00, 1e+02]
Presolve time: 1.72s
Presolved: 13230 rows, 153101 columns, 629015 nonzeros
Variable types: 100 continuous, 153001 integer (153000 binary)
Found heuristic solution: objective 8258.0000000
Found heuristic solution: objective 8247.0000000

Root simplex log...

Iteration    Objective       Primal Inf.    Dual Inf.      Time
    2500    6.2703539e-05   4.829930e+03   0.000000e+00      5s
    5612    1.5697857e-04   1.451204e+03   0.000000e+00     10s
    7952    2.3283860e-04   2.865325e+03   0.000000e+00     15s
   10663    3.2513946e-04   2.660450e+03   0.000000e+00     20s
   13738    4.9086771e-04   3.846596e+03   0.000000e+00     25s
   22356    6.1442552e+01   8.032754e+02   0.000000e+00     30s
   25092    6.6609302e+01   9.207112e+01   0.000000e+00     35s
   25693    6.6733942e+01   0.000000e+00   0.000000e+00     37s

Root relaxation: objective 6.673394e+01, 25693 iterations, 33.54 seconds

    Nodes    |    Current Node    |     Objective Bounds      |     Work
 Expl Unexpl |  Obj  Depth IntInf | Incumbent    BestBd   Gap | It/Node Time

     0     0   66.73394    0  388 8247.00000   66.73394  99.2%     -   37s
H    0     0                     132.0000000   66.73394  49.4%     -   61s
H    0     0                     111.0000000   66.73394  39.9%     -   84s
     0     0   66.79261    0  405  111.00000   66.79261  39.8%     -   95s
     0     0   66.79261    0  405  111.00000   66.79261  39.8%     -   96s
     0     0   66.93854    0  396  111.00000   66.93854  39.7%     -  104s
     0     0   66.93854    0  388  111.00000   66.93854  39.7%     -  227s
     0     0   67.00000    0  457  111.00000   67.00000  39.6%     -  261s
     0     0   67.00000    0  464  111.00000   67.00000  39.6%     -  275s
     0     0   67.00000    0  451  111.00000   67.00000  39.6%     -  282s
     0     0   67.00000    0  448  111.00000   67.00000  39.6%     -  282s
     0     0   67.00000    0  435  111.00000   67.00000  39.6%     -  286s
     0     0   67.00000    0  445  111.00000   67.00000  39.6%     -  286s
     0     0   67.00000    0  433  111.00000   67.00000  39.6%     -  291s
     0     0   67.00609    0  400  111.00000   67.00609  39.6%     -  293s
     0     0   67.01747    0  405  111.00000   67.01747  39.6%     -  298s
     0     0   67.01747    0  405  111.00000   67.01747  39.6%     -  298s
     0     0   67.04731    0  410  111.00000   67.04731  39.6%     -  305s
     0     0   67.04731    0  411  111.00000   67.04731  39.6%     -  305s
     0     0   67.04731    0  410  111.00000   67.04731  39.6%     -  311s
     0     0   67.04731    0  410  111.00000   67.04731  39.6%     -  311s
     0     0   67.04731    0  410  111.00000   67.04731  39.6%     -  317s
     0     0   67.05545    0  419  111.00000   67.05545  39.6%     -  317s
     0     0   67.07291    0  413  111.00000   67.07291  39.6%     -  323s
     0     0   67.07291    0  413  111.00000   67.07291  39.6%     -  324s
     0     0   67.07291    0  413  111.00000   67.07291  39.6%     -  330s
     0     0   68.00000    0  255  111.00000   68.00000  38.7%     -  485s
     0     0   68.00000    0  255  111.00000   68.00000  38.7%     -  501s
H    0     0                      83.0000000   68.00000  18.1%     -  504s
     0     2   68.00000    0  255   83.00000   68.00000  18.1%     -  532s
     1     3   68.00000    1  376   83.00000   68.00000  18.1%  2948  544s
     2     4   68.00000    1  388   83.00000   68.00000  18.1%  2378  562s
     3     5   68.00000    2  424   83.00000   68.00000  18.1%  1924  576s
     4     6   68.00000    2  421   83.00000   68.00000  18.1%  1662  589s
     5     7   68.00000    3  419   83.00000   68.00000  18.1%  1383  595s
     6     7   68.19244    4  415   83.00000   68.00000  18.1%  1464  611s
     7     8   68.00000    4  376   83.00000   68.00000  18.1%  1384  616s
     9    10   68.00000    5  447   83.00000   68.00000  18.1%  1394  629s
    10    10   68.08268    6  365   83.00000   68.00000  18.1%  1379  635s
    11    10   68.10313    6  423   83.00000   68.00000  18.1%  1632  646s
    12    11   69.00000    7  408   83.00000   68.00000  18.1%  1973  663s
    13    12   69.00000    8  402   83.00000   68.00000  18.1%  1834  666s
    14    13   69.00000    8  424   83.00000   68.00000  18.1%  1800  676s
    15    14   69.00000    9  390   83.00000   68.00000  18.1%  1714  680s
    16    15   69.00000   10  430   83.00000   68.00000  18.1%  1638  686s
    18    17   69.00000   12  431   83.00000   68.00000  18.1%  1481  691s
    19    18   69.00000   13  395   83.00000   68.00000  18.1%  1436  695s
    21    20   69.00000   14  384   83.00000   68.00000  18.1%  1387  704s
    22    21   69.00000   15  405   83.00000   68.00000  18.1%  1407  710s
    24    22   69.02457   16  307   83.00000   68.00000  18.1%  1348  715s
    25    22   69.05352   16  269   83.00000   68.00000  18.1%  1352  720s
    26    22   70.00000   17  398   83.00000   68.00000  18.1%  1486  736s
    27    23   70.00000   18  390   83.00000   68.00000  18.1%  1431  748s
    28    24   70.00000   19  415   83.00000   68.00000  18.1%  1393  758s
    29    25   70.00000   20  416   83.00000   68.00000  18.1%  1349  763s
    30    26   70.00000   20  394   83.00000   68.00000  18.1%  1315  771s
    31    27   70.00000   21  404   83.00000   68.00000  18.1%  1282  775s
    32    28   70.00000   22  363   83.00000   68.00000  18.1%  1262  781s
    33    29   70.00000   23  366   83.00000   68.00000  18.1%  1228  785s
    35    31   70.00000   25  358   83.00000   68.00000  18.1%  1182  792s
    37    31   70.00000   26  368   83.00000   68.00000  18.1%  1132  795s
    39    33   70.00000   27  400   83.00000   68.00000  18.1%  1134  803s
    40    34   70.00000   28  394   83.00000   68.00000  18.1%  1125  806s
    42    36   70.00000   29  367   83.00000   68.00000  18.1%  1111  811s
    43    36   70.59947   29  321   83.00000   68.00000  18.1%  1138  816s
    45    36   70.29760   30  350   83.00000   68.00000  18.1%  1135  820s
    46    37   71.00000   31  404   83.00000   68.00000  18.1%  1224  833s
    47    38   71.00000   32  410   83.00000   68.00000  18.1%  1205  840s
    48    39   71.00000   33  391   83.00000   68.00000  18.1%  1192  846s
    49    39   71.35022   34  309   83.00000   68.00000  18.1%  1223  852s
    50    40   71.00000   34  387   83.00000   68.00000  18.1%  1215  856s
    52    42   71.00000   36  364   83.00000   68.00000  18.1%  1181  860s
    54    44   71.00000   38  391   83.00000   68.00000  18.1%  1150  865s
    56    46   71.00000   39  380   83.00000   68.00000  18.1%  1135  870s
    60    50   71.00000   43  376   83.00000   68.00000  18.1%  1089  875s
    63    52   71.00000   45  353   83.00000   68.00000  18.1%  1069  880s
    67    54   72.00000   48  293   83.00000   68.00000  18.1%  1061  889s
    68    54   78.00000   49  266   83.00000   68.00000  18.1%  1068  897s
    69    55   72.00000   49  316   83.00000   68.00000  18.1%  1072  901s
    72    57   72.00000   51  296   83.00000   68.00000  18.1%  1060  905s
    75    58   73.00000   54  289   83.00000   68.00000  18.1%  1084  915s
    77    60   73.00000   55  302   83.00000   68.00000  18.1%  1076  920s
    80    62   73.00000   57  299   83.00000   68.00000  18.1%  1067  925s
    83    64   73.57067   58  253   83.00000   68.00000  18.1%  1061  933s
    85    66   73.00000   60  285   83.00000   68.00000  18.1%  1047  935s
    89    67   74.00000   62  279   83.00000   68.00000  18.1%  1040  943s
    91    68   74.00000   64  289   83.00000   68.00000  18.1%  1027  948s
    93    69   74.00000   66  315   83.00000   68.00000  18.1%  1009  952s
    96    71   74.00000   69  302   83.00000   68.00000  18.1%   989  956s
    98    73   74.00000   70  310   83.00000   68.00000  18.1%   980  961s
   100    75   74.00000   72  274   83.00000   68.00000  18.1%   968  965s
   105    78   74.00000   76  300   83.00000   68.00000  18.1%   939  970s
   108    78   75.00000   78  326   83.00000   68.00000  18.1%   946  979s
   110    79   75.00000   80  326   83.00000   68.00000  18.1%   934  983s
   113    81   75.00000   83  305   83.00000   68.00000  18.1%   917  985s
   117    83   75.00000   87  277   83.00000   68.00000  18.1%   895  990s
   126    87   75.35579   95  199   83.00000   68.00000  18.1%   852  995s
   131    88   82.00000   98  242   83.00000   68.00000  18.1%   844 1001s
   136    92   76.00000  103  254   83.00000   68.00000  18.1%   823 1005s
   142    93   77.00000  108  285   83.00000   68.00000  18.1%   805 1010s
   149    98   77.00000  115  258   83.00000   68.00000  18.1%   774 1015s
   165   104   77.00000  130  258   83.00000   68.00000  18.1%   707 1020s
   176   109   78.00000  138  232   83.00000   68.00000  18.1%   681 1025s
   188   116   78.00000  148  241   83.00000   68.00000  18.1%   652 1031s
   199   123   79.00000  158  239   83.00000   68.00000  18.1%   627 1035s
   218   133   80.00000  175  175   83.00000   68.00000  18.1%   584 1040s
   249   145   81.00000  203  190   83.00000   68.00000  18.1%   521 1045s
   278   152   68.05916    3  377   83.00000   68.00000  18.1%   480 1051s
   279   153   69.00000    4  469   83.00000   68.00000  18.1%   498 1066s
   280   154   69.00000    5  470   83.00000   68.00000  18.1%   526 1089s
   281   155   69.00000    6  473   83.00000   68.00000  18.1%   525 1090s
   282   156   69.00000    7  455   83.00000   68.00000  18.1%   523 1099s
   283   157   69.00000    8  479   83.00000   68.00000  18.1%   522 1101s
   286   160   69.00000   11  462   83.00000   68.00000  18.1%   521 1105s
   288   161   69.00000   12  462   83.00000   68.00000  18.1%   525 1111s
   291   164   69.00000   15  399   83.00000   68.00000  18.1%   526 1115s
   294   165   70.00000   17  444   83.00000   68.00000  18.1%   554 1136s
   296   167   70.00000   19  402   83.00000   68.00000  18.1%   555 1140s
   297   168   70.00000   19  395   83.00000   68.00000  18.1%   562 1161s
   300   171   70.00000   22  410   83.00000   68.00000  18.1%   561 1165s
   304   173   71.00000   25  448   83.00000   68.00000  18.1%   572 1178s
   306   175   71.00000   27  429   83.00000   68.00000  18.1%   570 1181s
   308   177   71.00000   28  434   83.00000   68.00000  18.1%   572 1186s
   312   181   71.00000   31  410   83.00000   68.00000  18.1%   570 1191s
   316   184   71.00000   34  352   83.00000   68.00000  18.1%   568 1195s
   322   187   72.00000   38  347   83.00000   68.00000  18.1%   579 1211s
   324   189   72.00000   39  379   83.00000   68.00000  18.1%   578 1222s
   326   190   72.45353   41  281   83.00000   68.00000  18.1%   579 1225s
   330   192   73.00000   43  315   83.00000   68.00000  18.1%   591 1236s
   333   195   73.00000   45  358   83.00000   68.00000  18.1%   594 1243s
   335   197   73.00000   46  336   83.00000   68.00000  18.1%   591 1245s
   337   199   73.00000   47  331   83.00000   68.00000  18.1%   589 1251s
   339   201   73.00000   49  365   83.00000   68.00000  18.1%   587 1255s
   341   203   73.00000   51  338   83.00000   68.00000  18.1%   586 1260s
   345   207   73.00000   55  321   83.00000   68.00000  18.1%   583 1265s
   354   215   73.38795   62  278   83.00000   68.00000  18.1%   577 1271s
   357   216   74.00000   64  349   83.00000   68.00000  18.1%   582 1276s
   360   219   74.00000   67  347   83.00000   68.00000  18.1%   578 1280s
   362   220   74.28417   69  268   83.00000   68.00000  18.1%   580 1285s
   366   223   74.00000   72  354   83.00000   68.00000  18.1%   577 1291s
   372   227   75.00000   77  274   83.00000   68.00000  18.1%   572 1295s
   376   228   75.00000   81  293   83.00000   68.00000  18.1%   567 1300s
   385   232   75.00000   88  275   83.00000   68.00000  18.1%   558 1305s
   396   239   75.00000   99  283   83.00000   68.00000  18.1%   547 1310s
   405   242   76.00000  107  278   83.00000   68.00000  18.1%   541 1315s
   418   250   76.00000  119  261   83.00000   68.00000  18.1%   528 1320s
   429   255   77.00000  127  253   83.00000   68.00000  18.1%   521 1325s
   448   260   79.00000  142  269   83.00000   68.00000  18.1%   501 1330s
   470   270   80.00000  162  180   83.00000   68.00000  18.1%   481 1335s
   483   271   68.00000    3  444   83.00000   68.00000  18.1%   473 1341s
   484   271   68.07332    4  390   83.00000   68.00000  18.1%   476 1346s
   485   272   68.00000    4  465   83.00000   68.00000  18.1%   479 1350s
   487   273   68.01625    6  420   83.00000   68.00000  18.1%   479 1477s
   488   274   69.00000    7  462   83.00000   68.00000  18.1%   499 1506s
   491   277   69.00000   10  449   83.00000   68.00000  18.1%   498 1510s
   494   280   69.00000   13  459   83.00000   68.00000  18.1%   498 1515s
   497   282   69.00000   15  441   83.00000   68.00000  18.1%   498 1520s
   499   283   69.00000   16  410   83.00000   68.00000  18.1%   500 1525s
   503   285   70.00000   19  454   83.00000   68.00000  18.1%   519 1552s
   504   286   70.00000   20  458   83.00000   68.00000  18.1%   518 1555s
   506   287   70.01953   22  362   83.00000   68.00000  18.1%   519 1560s
   511   289   80.00000  174  396   83.00000   68.00000  18.1%   518 1635s
   513   290   72.00000   34  259   83.00000   68.00000  18.1%   516 1659s
   514   291   73.00000   45  469   83.00000   68.00000  18.1%   515 1664s
   515   292   71.00000   40  432   83.00000   68.00000  18.1%   514 1669s
   517   293   71.00000   24  457   83.00000   68.00000  18.1%   512 1674s
   518   294   70.00000   20  465   83.00000   68.00000  18.1%   511 1677s
   519   294   80.00000  188  466   83.00000   68.00000  18.1%   510 1680s
   520   295   73.00000   45  358   83.00000   68.00000  18.1%   509 1694s
   521   296   70.00000   29  441   83.00000   68.00000  18.1%   508 1699s
   522   296   76.00000  114  361   83.00000   68.00000  18.1%   507 1710s
   523   297   78.00000   50  413   83.00000   68.00000  18.1%   506 1719s
   524   298   80.00000  163  352   83.00000   68.00000  18.1%   505 1733s
   525   298   70.00000   13  437   83.00000   68.00000  18.1%   504 1739s
   526   299   76.00000  120  390   83.00000   68.00000  18.1%   503 1752s
   527   300   78.00000  147  460   83.00000   68.00000  18.1%   502 1757s
   528   300   68.00000    2  404   83.00000   68.00000  18.1%   501 1767s
   529   301   73.00000   43  495   83.00000   68.00000  18.1%   500 1772s
   530   302   74.00000   71  377   83.00000   68.00000  18.1%   499 1784s
   531   302   80.00000  174  482   83.00000   68.00000  18.1%   498 1796s
   532   303   71.00000   24  362   83.00000   68.00000  18.1%   497 1851s
   533   304   72.00000   34  362   83.00000   68.00000  18.1%   496 1856s
   534   304   73.00000   45  362   83.00000   68.00000  18.1%   495 1871s
   535   307   68.00000   13  407   83.00000   68.00000  18.1%   799 1927s
   536   308   68.00000   13  416   83.00000   68.00000  18.1%   800 1977s
   537   308   68.00000   14  446   83.00000   68.00000  18.1%   799 2027s
   538   309   68.00000   14  442   83.00000   68.00000  18.1%   801 2047s
   539   310   68.00000   15  448   83.00000   68.00000  18.1%   800 2056s
   540   310   68.00000   15  455   83.00000   68.00000  18.1%   800 2066s
   541   311   68.00000   16  468   83.00000   68.00000  18.1%   799 2072s
   542   312   68.00000   16  495   83.00000   68.00000  18.1%   800 2083s
   543   311   68.20271   17  416   83.00000   68.00000  18.1%   801 2093s
   544   311   68.01187   17  454   83.00000   68.00000  18.1%   802 2101s
   545   312   69.00000   18  450   83.00000   68.00000  18.1%   811 2118s
   546   312   69.00000   19  456   83.00000   68.00000  18.1%   810 2127s
   547   313   69.00000   19  490   83.00000   68.00000  18.1%   812 2134s
   548   314   69.00000   20  446   83.00000   68.00000  18.1%   811 2140s
   549   314   69.00000   20  442   83.00000   68.00000  18.1%   811 2146s
   550   315   69.00000   21  409   83.00000   68.00000  18.1%   812 2151s
   551   316   69.00000   21  457   83.00000   68.00000  18.1%   813 2158s
   552   316   69.00000   22  428   83.00000   68.00000  18.1%   812 2163s
   553   317   69.00000   22  475   83.00000   68.00000  18.1%   813 2167s
   554   318   69.00000   23  451   83.00000   68.00000  18.1%   813 2171s
   556   319   69.00000   24  437   83.00000   68.00000  18.1%   812 2177s
   557   320   69.00000   24  452   83.00000   68.00000  18.1%   813 2181s
   558   320   69.00000   25  438   83.00000   68.00000  18.1%   814 2186s
   559   321   69.00000   25  412   83.00000   68.00000  18.1%   815 2190s
   561   322   69.00000   26  437   83.00000   68.00000  18.1%   815 2195s
   563   324   69.00000   27  442   83.00000   68.00000  18.1%   815 2201s
   564   324   69.00000   28  448   83.00000   68.00000  18.1%   814 2213s
   565   325   69.00000   28  427   83.00000   68.00000  18.1%   814 2215s
   567   325   69.07702   29  383   83.00000   68.00000  18.1%   815 2221s
   569   326   69.11592   30  356   83.00000   68.00000  18.1%   815 2225s
   572   327   69.00000   32  438   83.00000   68.00000  18.1%   816 2231s
   573   327   69.00000   32  455   83.00000   68.00000  18.1%   817 2235s
   577   328   69.16894   34  340   83.00000   68.00000  18.1%   815 2240s
   579   328   69.22924   35  370   83.00000   68.00000  18.1%   817 2246s
   582   328   70.00000   37  408   83.00000   68.00000  18.1%   826 2263s
   583   329   70.00000   38  384   83.00000   68.00000  18.1%   824 2265s
   584   330   70.00000   38  398   83.00000   68.00000  18.1%   828 2272s
   586   331   70.00000   39  414   83.00000   68.00000  18.1%   829 2277s
   588   332   70.00000   40  406   83.00000   68.00000  18.1%   828 2280s
   590   334   70.00000   41  400   83.00000   68.00000  18.1%   828 2287s
   591   334   70.00000   42  416   83.00000   68.00000  18.1%   826 2290s
   592   334   71.36467   42  383   83.00000   68.00000  18.1%   829 2296s
   594   335   70.00000   43  409   83.00000   68.00000  18.1%   829 2302s
   596   337   70.00000   44  414   83.00000   68.00000  18.1%   829 2306s
   598   337   70.24639   45  344   83.00000   68.00000  18.1%   831 2314s
   599   338   70.00000   46  400   83.00000   68.00000  18.1%   830 2315s
   601   338   70.00000   47  368   83.00000   68.00000  18.1%   832 2322s
   602   339   70.00000   47  422   83.00000   68.00000  18.1%   833 2326s
   603   339   70.00000   48  409   83.00000   68.00000  18.1%   841 2337s
   604   339   72.52318   48  346   83.00000   68.00000  18.1%   844 2345s
   607   340   70.00000   50  375   83.00000   68.00000  18.1%   843 2351s
   609   340   70.00000   51  380   83.00000   68.00000  18.1%   843 2355s
   612   340   70.39790   52  309   83.00000   68.00000  18.1%   843 2360s
   614   341   70.21976   53  306   83.00000   68.00000  18.1%   843 2366s
   616   340   70.49628   54  329   83.00000   68.00000  18.1%   844 2371s
   617   341   71.00000   55  357   83.00000   68.00000  18.1%   847 2377s
   618   341   71.00000   56  355   83.00000   68.00000  18.1%   847 2382s
   619   341   71.06127   56  301   83.00000   68.00000  18.1%   848 2386s
   620   342   71.00000   57  345   83.00000   68.00000  18.1%   847 2390s
   621   341   72.15810   57  269   83.00000   68.00000  18.1%   850 2396s
   623   343   71.00000   58  338   83.00000   68.00000  18.1%   850 2402s
   624   343   71.00000   59  374   83.00000   68.00000  18.1%   850 2452s
   626   345   71.00000   60  379   83.00000   68.00000  18.1%   850 2457s
   627   345   71.00000   60  354   83.00000   68.00000  18.1%   850 2461s
   630   346   71.26009   62  297   83.00000   68.00000  18.1%   852 2469s
   631   347   71.00000   62  392   83.00000   68.00000  18.1%   852 2471s
   633   347   72.59434   63  298   83.00000   68.00000  18.1%   853 2475s
   636   347   71.01706   65  247   83.00000   68.00000  18.1%   853 2480s
   639   348   71.38784   66  269   83.00000   68.00000  18.1%   852 2485s
   642   348   72.00000   68  392   83.00000   68.00000  18.1%   854 2492s
   644   350   72.00000   69  370   83.00000   68.00000  18.1%   852 2497s
   646   350   72.05445   70  280   83.00000   68.00000  18.1%   852 2501s
   648   350   73.42805   71  260   83.00000   68.00000  18.1%   852 2506s
   650   352   72.00000   72  391   83.00000   68.00000  18.1%   853 2511s
   654   352   72.28464   74  299   83.00000   68.00000  18.1%   851 2516s
   657   353   72.00000   76  338   83.00000   68.00000  18.1%   850 2520s
   660   353   72.75951   77  291   83.00000   68.00000  18.1%   850 2527s
   663   353   72.03584   79  310   83.00000   68.00000  18.1%   850 2531s
   666   354   72.21972   80  248   83.00000   68.00000  18.1%   850 2536s
   670   355   72.35725   82  282   83.00000   68.00000  18.1%   847 2540s
   675   355   72.22549   85  294   83.00000   68.00000  18.1%   844 2545s
   679   356   73.00000   87  357   83.00000   68.00000  18.1%   844 2552s
   681   357   73.00000   88  324   83.00000   68.00000  18.1%   844 2556s
   684   357   74.00000   90  316   83.00000   68.00000  18.1%   844 2561s
   685   358   74.00000   91  319   83.00000   68.00000  18.1%   845 2565s
   688   360   80.00000   92  330   83.00000   68.00000  18.1%   848 2577s
   690   361   80.00000   93  317   83.00000   68.00000  18.1%   846 2581s
   693   361   80.00000   94  340   83.00000   68.00000  18.1%   844 2587s
   694   362   80.00000   95  290   83.00000   68.00000  18.1%   845 2591s
   696   363   80.00000   96  307   83.00000   68.00000  18.1%   844 2596s
   698   365   80.00000   97  325   83.00000   68.00000  18.1%   843 2600s
   700   365   80.00000   98  320   83.00000   68.00000  18.1%   845 2605s
   705   366     cutoff  100        83.00000   68.00000  18.1%   844 2611s
   708   367   81.31551  102  203   83.00000   68.00000  18.1%   844 2616s
   714   370   80.00000  105  293   83.00000   68.00000  18.1%   840 2620s
   723   370     cutoff  109        83.00000   68.00000  18.1%   835 2625s
   729   371   80.00000  112  245   83.00000   68.00000  18.1%   832 2630s
   737   373   81.00000  117  233   83.00000   68.00000  18.1%   828 2636s
   743   372   82.00000  121  253   83.00000   68.00000  18.1%   825 2640s
   750   370   82.00000  125  215   83.00000   68.00000  18.1%   820 2645s
   758   370   82.00000  129  214   83.00000   68.00000  18.1%   815 2650s
   765   366   68.00000   14  445   83.00000   68.00000  18.1%   812 2655s
   767   368   68.00000   15  470   83.00000   68.00000  18.1%   814 2662s
   768   368   68.00000   16  451   83.00000   68.00000  18.1%   815 2666s
   770   368   68.33688   17  383   83.00000   68.00000  18.1%   815 2670s
   772   368   69.00000   18  428   83.00000   68.00000  18.1%   821 2684s
   773   369   69.00000   19  447   83.00000   68.00000  18.1%   824 2690s
   776   371   69.00000   20  430   83.00000   68.00000  18.1%   823 2696s
   778   372   69.00000   21  415   83.00000   68.00000  18.1%   821 2701s
   779   373   69.00000   22  447   83.00000   68.00000  18.1%   822 2706s
   781   374   69.00000   23  430   83.00000   68.00000  18.1%   822 2711s
   782   374   69.12537   23  393   83.00000   68.00000  18.1%   825 2717s
   784   375   69.00000   24  458   83.00000   68.00000  18.1%   825 2722s
   785   376   69.00000   25  445   83.00000   68.00000  18.1%   825 2725s
   788   377   69.03924   26  411   83.00000   68.00000  18.1%   824 2730s
   790   376   69.18916   27  412   83.00000   68.00000  18.1%   828 2738s
   791   377   70.00000   28  402   83.00000   68.00000  18.1%   832 2745s
   793   377   70.39420   29  360   83.00000   68.00000  18.1%   831 2751s
   794   378   70.00000   30  387   83.00000   68.00000  18.1%   831 2755s
   795   377   70.04215   30  359   83.00000   68.00000  18.1%   833 2761s
   796   378   70.00000   31  430   83.00000   68.00000  18.1%   833 2767s
   797   379   70.00000   31  420   83.00000   68.00000  18.1%   834 2770s
   800   379   70.00000   33  384   83.00000   68.00000  18.1%   832 2775s
   803   381   78.00000   34  378   83.00000   68.00000  18.1%   832 2784s
   804   381   70.00000   35  417   83.00000   68.00000  18.1%   831 2787s
   805   381   70.55866   35  377   83.00000   68.00000  18.1%   832 2791s
   807   381   70.50346   36  352   83.00000   68.00000  18.1%   834 2797s
   809   383   70.00000   37  408   83.00000   68.00000  18.1%   834 2802s
   811   384   70.00000   38  440   83.00000   68.00000  18.1%   834 2807s
   813   384   70.10389   39  324   83.00000   68.00000  18.1%   835 2814s
   814   385   70.00000   40  412   83.00000   68.00000  18.1%   834 2815s
   817   387   70.00000   41  369   83.00000   68.00000  18.1%   834 2822s
   819   387   70.26457   42  321   83.00000   68.00000  18.1%   833 2826s
   821   387   70.02293   43  328   83.00000   68.00000  18.1%   833 2831s
   822   387   71.00000   44  372   83.00000   68.00000  18.1%   837 2838s
   823   388   71.00000   45  397   83.00000   68.00000  18.1%   836 2843s
   824   389   71.00000   45  399   83.00000   68.00000  18.1%   837 2845s
   827   390   71.00000   47  420   83.00000   68.00000  18.1%   836 2850s
   829   390   71.00000   48  400   83.00000   68.00000  18.1%   837 2855s
   832   392   71.00000   49  408   83.00000   68.00000  18.1%   836 2860s
   835   393   71.00000   51  393   83.00000   68.00000  18.1%   837 2865s
   837   393   71.00000   52  394   83.00000   68.00000  18.1%   837 2870s
   839   394   71.00000   53  410   83.00000   68.00000  18.1%   838 2875s
   842   394   71.20853   54  320   83.00000   68.00000  18.1%   838 2881s
   845   393   72.00000   56  366   83.00000   68.00000  18.1%   840 2889s
   846   393   72.00000   57  382   83.00000   68.00000  18.1%   839 2892s
   847   394   72.00000   57  371   83.00000   68.00000  18.1%   840 2896s
   850   395   72.00000   59  385   83.00000   68.00000  18.1%   839 2900s
   852   396   72.00000   60  387   83.00000   68.00000  18.1%   839 2906s
   855   397   74.26259   61  337   83.00000   68.00000  18.1%   841 2913s
   856   398   72.00000   62  363   83.00000   68.00000  18.1%   841 2916s
   857   399   72.00000   62  425   83.00000   68.00000  18.1%   842 2920s
   861   398   72.32282   64  307   83.00000   68.00000  18.1%   842 2925s
   863   400   73.00000   66  356   83.00000   68.00000  18.1%   842 2931s
   866   399   73.14528   67  340   83.00000   68.00000  18.1%   842 2935s
   869   400   73.00000   69  351   83.00000   68.00000  18.1%   842 2940s
   873   402   73.00000   71  360   83.00000   68.00000  18.1%   840 2945s
   875   402   73.00000   72  353   83.00000   68.00000  18.1%   841 2950s
   878   403   73.00000   73  358   83.00000   68.00000  18.1%   841 2955s
   882   402   73.18898   75  281   83.00000   68.00000  18.1%   841 2960s
   884   404   74.00000   77  343   83.00000   68.00000  18.1%   841 2966s
   887   404   74.07997   78  245   83.00000   68.00000  18.1%   841 2970s
   889   405   75.00000   80  337   83.00000   68.00000  18.1%   842 2976s
   891   405   77.07099   81  260   83.00000   68.00000  18.1%   846 2984s
   892   405   75.04666   81  249   83.00000   68.00000  18.1%   845 2986s
   894   406   76.00000   83  318   83.00000   68.00000  18.1%   846 2991s
   895   406   80.00000   83  318   83.00000   68.00000  18.1%   848 2997s
   897   406   77.86997   84  267   83.00000   68.00000  18.1%   848 3001s
   900   407   76.00000   86  353   83.00000   68.00000  18.1%   849 3006s
   902   409   76.00000   87  330   83.00000   68.00000  18.1%   850 3010s
   905   410   77.05932   88  252   83.00000   68.00000  18.1%   850 3015s
   908   410   77.66597   90  238   83.00000   68.00000  18.1%   852 3022s
   910   410   77.00000   91  276   83.00000   68.00000  18.1%   853 3028s
   912   411   77.00000   92  315   83.00000   68.00000  18.1%   853 3031s
   914   413   77.00000   93  300   83.00000   68.00000  18.1%   854 3035s
   919   413   77.00000   96  281   83.00000   68.00000  18.1%   853 3041s
   924   413   77.59449   98  215   83.00000   68.00000  18.1%   852 3046s
   927   413   77.07266  100  260   83.00000   68.00000  18.1%   852 3050s
   929   414   78.00000  101  292   83.00000   68.00000  18.1%   853 3055s
   935   415   78.88512  104  241   83.00000   68.00000  18.1%   852 3060s
   938   416   80.48213  106  205   83.00000   68.00000  18.1%   852 3066s
   942   415 infeasible  108        83.00000   68.00000  18.1%   851 3070s
   945   415   80.00000  110  261   83.00000   68.00000  18.1%   852 3075s
   950   415   80.72195  113  185   83.00000   68.00000  18.1%   851 3080s
   956   415   81.00000  117  249   83.00000   68.00000  18.1%   849 3085s
   966   411   81.59107  122  191   83.00000   68.00000  18.1%   845 3090s
   978   407   68.00000   15  443   83.00000   68.00000  18.1%   837 3096s
   980   409   68.00000   16  472   83.00000   68.00000  18.1%   837 3102s
   982   410   68.00000   17  445   83.00000   68.00000  18.1%   837 3108s
   983   411   68.00000   18  454   83.00000   68.00000  18.1%   838 3112s
   984   410   68.25773   18  410   83.00000   68.00000  18.1%   839 3115s
   986   411   68.80155   19  385   83.00000   68.00000  18.1%   839 3121s
   987   411   68.00000   20  465   83.00000   68.00000  18.1%   839 3125s
   989   413   68.00000   21  450   83.00000   68.00000  18.1%   839 3130s
   990   412   68.21657   21  419   83.00000   68.00000  18.1%   840 3135s
   992   414   68.00000   22  448   83.00000   68.00000  18.1%   839 3140s
   994   414   68.00000   23  453   83.00000   68.00000  18.1%   840 3146s
   996   413   68.07781   24  410   83.00000   68.00000  18.1%   840 3151s
   997   414   69.00000   25  421   83.00000   68.00000  18.1%   845 3168s
   998   415   69.00000   26  399   83.00000   68.00000  18.1%   845 3173s
   999   415   69.00000   26  393   83.00000   68.00000  18.1%   845 3176s
  1001   417   69.00000   27  383   83.00000   68.00000  18.1%   844 3181s
  1003   418   69.00000   28  412   83.00000   68.00000  18.1%   844 3186s
  1005   418   69.73913   29  318   83.00000   68.00000  18.1%   844 3192s
  1007   419   69.00000   30  393   83.00000   68.00000  18.1%   845 3197s
  1009   419   70.12421   31  320   83.00000   68.00000  18.1%   845 3202s
  1011   419   69.65957   32  292   83.00000   68.00000  18.1%   845 3208s
  1012   419   69.06703   33  358   83.00000   68.00000  18.1%   845 3210s
  1014   419   70.00000   34  399   83.00000   68.00000  18.1%   849 3222s
  1015   420   70.00000   35  390   83.00000   68.00000  18.1%   848 3225s
  1016   420   75.05000   35  395   83.00000   68.00000  18.1%   851 3239s
  1017   420   70.00000   36  370   83.00000   68.00000  18.1%   851 3241s
  1018   421   70.00000   36  389   83.00000   68.00000  18.1%   851 3245s
  1020   422   70.00000   37  375   83.00000   68.00000  18.1%   851 3250s
  1023   423   70.00000   39  341   83.00000   68.00000  18.1%   850 3256s
  1024   423   77.09000   39  418   83.00000   68.00000  18.1%   850 3268s
  1025   424   70.00000   40  383   83.00000   68.00000  18.1%   851 3271s
  1027   425   70.00000   41  343   83.00000   68.00000  18.1%   850 3275s
  1028   426   82.00000   41  386   83.00000   68.00000  18.1%   856 3292s
  1029   426   82.00000   42  338   83.00000   68.00000  18.1%   856 3299s
  1030   427   82.00000   42  326   83.00000   68.00000  18.1%   857 3304s
  1031   428   82.00000   43  313   83.00000   68.00000  18.1%   856 3305s
  1032   428   82.00000   43  322   83.00000   68.00000  18.1%   857 3313s
  1034   430   82.00000   44  352   83.00000   68.00000  18.1%   856 3322s
  1035   430   82.00000   45  361   83.00000   68.00000  18.1%   856 3325s
  1036   431   82.00000   45  391   83.00000   68.00000  18.1%   856 3335s
  1038   432   82.00000   46  325   83.00000   68.00000  18.1%   857 3343s
  1040   434   82.00000   47  316   83.00000   68.00000  18.1%   855 3346s
  1041   434   82.00000   48  357   83.00000   68.00000  18.1%   856 3355s
  1044   436   82.00000   49  312   83.00000   68.00000  18.1%   856 3366s
  1046   438   82.00000   50  358   83.00000   68.00000  18.1%   856 3377s
  1048   439   82.00000   51  331   83.00000   68.00000  18.1%   855 3382s
  1049   440   82.00000   52  371   83.00000   68.00000  18.1%   856 3390s
  1050   440   82.00000   52  358   83.00000   68.00000  18.1%   857 3398s
  1052   442   82.00000   53  378   83.00000   68.00000  18.1%   856 3404s
  1053   442   82.00000   54  350   83.00000   68.00000  18.1%   856 3407s
  1054   443   82.00000   54  355   83.00000   68.00000  18.1%   856 3411s
  1056   444   82.00000   55  379   83.00000   68.00000  18.1%   856 3419s
  1057   445   82.00000   56  374   83.00000   68.00000  18.1%   855 3420s
  1060   445   82.00000   57  349   83.00000   68.00000  18.1%   855 3429s
  1061   446   82.00000   58  332   83.00000   68.00000  18.1%   855 3430s
  1062   446   82.00000   58  342   83.00000   68.00000  18.1%   856 3435s
  1064   448   82.00000   59  326   83.00000   68.00000  18.1%   856 3441s
  1066   449   82.00000   60  325   83.00000   68.00000  18.1%   856 3447s
  1068   450   82.00000   61  308   83.00000   68.00000  18.1%   856 3452s
  1070   452   82.00000   62  328   83.00000   68.00000  18.1%   855 3456s
  1072   453   82.00000   63  313   83.00000   68.00000  18.1%   857 3465s
  1075   455   82.00000   65  296   83.00000   68.00000  18.1%   858 3472s
  1078   457   82.00000   66  328   83.00000   68.00000  18.1%   858 3480s
  1080   458   82.00000   67  292   83.00000   68.00000  18.1%   858 3485s
  1085   462   82.00000   70  271   83.00000   68.00000  18.1%   857 3490s
  1088   464   82.00000   71  315   83.00000   68.00000  18.1%   857 3496s
  1092   464 infeasible   73        83.00000   68.00000  18.1%   856 3500s
  1094   466   82.00000   74  341   83.00000   68.00000  18.1%   857 3506s
  1097   466   82.00000   76  320   83.00000   68.00000  18.1%   857 3510s
  1100   468   82.00000   77  310   83.00000   68.00000  18.1%   856 3515s
  1107   466   82.00000   81  304   83.00000   68.00000  18.1%   855 3520s
  1115   464   82.00000   85  295   83.00000   68.00000  18.1%   852 3526s
  1118   462 infeasible   86        83.00000   68.00000  18.1%   852 3530s
  1122   460 infeasible   88        83.00000   68.00000  18.1%   851 3535s
  1126   459   68.00000   18  446   83.00000   68.00000  18.1%   850 3540s
  1128   458   68.22873   19  366   83.00000   68.00000  18.1%   851 3546s
  1129   459   69.00000   20  431   83.00000   68.00000  18.1%   855 3555s
  1133   462   69.00000   24  430   83.00000   68.00000  18.1%   855 3566s
  1135   463   69.00000   26  416   83.00000   68.00000  18.1%   855 3570s
  1138   464   69.00000   28  392   83.00000   68.00000  18.1%   854 3576s
  1141   465   69.59589   31  320   83.00000   68.00000  18.1%   854 3580s
  1143   464   69.54807   30  309   83.00000   68.00000  18.1%   855 3585s
  1144   465   70.00000   32  405   83.00000   68.00000  18.1%   857 3591s
  1147   467   70.00000   35  410   83.00000   68.00000  18.1%   857 3595s

Cutting planes:
  Gomory: 3
  Implied bound: 4
  Clique: 1
  MIR: 17
  Flow cover: 20
  Zero half: 5
  Mod-K: 2

Explored 1152 nodes (1010816 simplex iterations) in 3600.03 seconds
Thread count was 1 (of 12 available processors)

Solution count 5: 83 111 132 ... 8258
Pool objective bound 68

Time limit reached
Best objective 8.300000000000e+01, best bound 6.800000000000e+01, gap 18.0723%
